89 13178 13756
111
112
115
116
120
208
126
127
134
137
136
135
133
128
125
132
129
124
121
122
123
130
131
141
142
147
146
148
151
157
158
163
162
159
156
152
149
150
153
155
160
161
210
169
172
173
176
183
187
188
189
184
182
177
178
181
185
186
180
179
174
175
167
168
171
170
278
281
288
292
293
294
289
287
282
283
286
290
285
284
279
280
291
299
300
308
309
310
304

